(declare-fun temp143189_1 () (_ BitVec 64))
(declare-fun temp143189_2 () (_ BitVec 64))
(declare-fun var77740 () (_ BitVec 64))
(declare-fun k!0 () Bool)
(declare-fun ARGNAME_input_1_NAMEEND_DIM () (_ BitVec 64))
(declare-fun ARGNAME_data_format_NAMEEND_STRFMT () (_ BitVec 64))
(declare-fun temp143189_3 () (_ BitVec 64))
(declare-fun ARGNAME_input_2_NAMEEND_DIM () (_ BitVec 64))
(declare-fun var77770 () (_ BitVec 64))
(declare-fun temp143189_4 () (_ BitVec 64))
(declare-fun temp143189_5 () (_ BitVec 64))
(declare-fun ARGNAME_input_1_NAMEEND_DIMSIZE
             ()
             (Array (_ BitVec 64) (_ BitVec 64)))
(declare-fun temp143189_6 () (_ BitVec 64))
(declare-fun temp143189_7 () (_ BitVec 64))
(declare-fun temp143189_8 () (_ BitVec 64))
(declare-fun temp143189_9 () (_ BitVec 64))
(declare-fun temp143189_10 () (_ BitVec 64))
(declare-fun temp143189_11 () (_ BitVec 64))
(declare-fun temp143189_12 () (_ BitVec 64))
(declare-fun temp143189_13 () (_ BitVec 64))
(declare-fun temp143189_14 () (_ BitVec 64))
(declare-fun temp143189_15 () (_ BitVec 64))
(declare-fun temp143189_16 () (_ BitVec 64))
(declare-fun temp143189_17 () (_ BitVec 64))
(declare-fun temp143189_18 () (_ BitVec 64))
(declare-fun var77799 () (_ BitVec 64))
(declare-fun temp143189_19 () (_ BitVec 64))
(declare-fun ARGNAME_input_2_NAMEEND_DIMSIZE
             ()
             (Array (_ BitVec 64) (_ BitVec 64)))
(declare-fun temp143189_20 () (_ BitVec 64))
(declare-fun temp143189_21 () (_ BitVec 64))
(declare-fun temp143189_22 () (_ BitVec 64))
(declare-fun temp143189_23 () (_ BitVec 64))
(declare-fun temp143189_24 () (_ BitVec 64))
(declare-fun temp143189_25 () (_ BitVec 64))
(declare-fun temp143189_26 () (_ BitVec 64))
(declare-fun temp143189_27 () (_ BitVec 64))
(declare-fun temp143189_28 () (_ BitVec 64))
(declare-fun temp143189_29 () (_ BitVec 64))
(declare-fun temp143189_30 () (_ BitVec 64))
(declare-fun temp143189_31 () (_ BitVec 64))
(declare-fun temp143189_32 () (_ BitVec 64))
(declare-fun var77832 () (_ BitVec 64))
(declare-fun temp143189_33 () (_ BitVec 64))
(declare-fun temp143189_34 () (_ BitVec 64))
(declare-fun var77833 () (_ BitVec 64))
(declare-fun var77834 () (_ BitVec 64))
(declare-fun temp143189_35 () (_ BitVec 64))
(declare-fun temp143189_36 () (_ BitVec 64))
(declare-fun var275510 () (_ BitVec 64))
(declare-fun temp143189_37 () (_ BitVec 64))
(declare-fun var275528 () (_ BitVec 64))
(declare-fun temp143189_38 () (_ BitVec 64))
(declare-fun temp143189_40 () (_ BitVec 64))
(declare-fun temp143189_39 () (_ BitVec 64))
(declare-fun temp143189_42 () (_ BitVec 64))
(declare-fun temp143189_41 () (_ BitVec 64))
(declare-fun temp143189_43 () (_ BitVec 64))
(declare-fun var406582 () (_ BitVec 64))
(declare-fun temp143189_44 () (_ BitVec 64))
(declare-fun var406600 () (_ BitVec 64))
(declare-fun temp143189_45 () (_ BitVec 64))
(declare-fun temp143189_46 () (_ BitVec 64))
(declare-fun var537654 () (_ BitVec 64))
(declare-fun temp143189_47 () (_ BitVec 64))
(declare-fun var537672 () (_ BitVec 64))
(declare-fun temp143189_48 () (_ BitVec 64))
(declare-fun temp143189_50 () (_ BitVec 64))
(declare-fun temp143189_49 () (_ BitVec 64))
(declare-fun temp143189_52 () (_ BitVec 64))
(declare-fun temp143189_51 () (_ BitVec 64))
(declare-fun temp143189_54 () (_ BitVec 64))
(declare-fun temp143189_53 () (_ BitVec 64))
(declare-fun temp143189_55 () (_ BitVec 64))
(declare-fun var795723 () (_ BitVec 64))
(declare-fun var795702 () (_ BitVec 64))
(declare-fun var664608 () (_ BitVec 64))
(declare-fun temp143189_56 () (_ BitVec 64))
(declare-fun temp143189_57 () (_ BitVec 64))
(declare-fun var861259 () (_ BitVec 64))
(declare-fun var861238 () (_ BitVec 64))
(declare-fun var664611 () (_ BitVec 64))
(declare-fun temp143189_58 () (_ BitVec 64))
(declare-fun temp143189_59 () (_ BitVec 64))
(declare-fun var1057842 () (_ BitVec 64))
(declare-fun temp143189_60 () (_ BitVec 64))
(declare-fun var1123378 () (_ BitVec 64))
(declare-fun temp143189_61 () (_ BitVec 64))
(declare-fun var1188914 () (_ BitVec 64))
(assert (or (= ARGNAME_data_format_NAMEEND_STRFMT #x0000000000000000)
    (= ARGNAME_data_format_NAMEEND_STRFMT #x0000000000000001)
    (= ARGNAME_data_format_NAMEEND_STRFMT #x0000000000000002)
    (= ARGNAME_data_format_NAMEEND_STRFMT #x0000000000000003)
    (= ARGNAME_data_format_NAMEEND_STRFMT #x0000000000000004)
    (= ARGNAME_data_format_NAMEEND_STRFMT #x0000000000000005)))
(assert (= temp143189_1 #x0000000000000005))
(assert (= var77740
   (ite (= ARGNAME_input_1_NAMEEND_DIM temp143189_1)
        #x0000000000000001
        #x0000000000000000)))
(assert (= temp143189_2 #x0000000000000001))
(assert (= var77740 temp143189_2))
(assert (= temp143189_3 #x0000000000000005))
(assert (= var77770
   (ite (= ARGNAME_input_2_NAMEEND_DIM temp143189_3)
        #x0000000000000001
        #x0000000000000000)))
(assert (= temp143189_4 #x0000000000000001))
(assert (= var77770 temp143189_4))
(assert (= temp143189_5 #x0000000000000000))
(assert (= temp143189_6 (select ARGNAME_input_1_NAMEEND_DIMSIZE temp143189_5)))
(assert (= temp143189_7 #x0000000000000001))
(assert (= temp143189_8 (select ARGNAME_input_1_NAMEEND_DIMSIZE temp143189_7)))
(assert (= temp143189_9 #x0000000000000002))
(assert (= temp143189_10 (select ARGNAME_input_1_NAMEEND_DIMSIZE temp143189_9)))
(assert (= temp143189_11 #x0000000000000003))
(assert (= temp143189_12 (select ARGNAME_input_1_NAMEEND_DIMSIZE temp143189_11)))
(assert (= temp143189_13 #x0000000000000004))
(assert (= temp143189_14 (select ARGNAME_input_1_NAMEEND_DIMSIZE temp143189_13)))
(assert (= temp143189_15 #x0000000000000005))
(assert (= temp143189_16 (select ARGNAME_input_1_NAMEEND_DIMSIZE temp143189_15)))
(assert (= temp143189_17 #x0000000000000003))
(assert (= temp143189_18 (select ARGNAME_input_1_NAMEEND_DIMSIZE temp143189_17)))
(assert (= var77799 temp143189_18))
(assert (= temp143189_19 #x0000000000000000))
(assert (= temp143189_20 (select ARGNAME_input_2_NAMEEND_DIMSIZE temp143189_19)))
(assert (= temp143189_21 #x0000000000000001))
(assert (= temp143189_22 (select ARGNAME_input_2_NAMEEND_DIMSIZE temp143189_21)))
(assert (= temp143189_23 #x0000000000000002))
(assert (= temp143189_24 (select ARGNAME_input_2_NAMEEND_DIMSIZE temp143189_23)))
(assert (= temp143189_25 #x0000000000000003))
(assert (= temp143189_26 (select ARGNAME_input_2_NAMEEND_DIMSIZE temp143189_25)))
(assert (= temp143189_27 #x0000000000000004))
(assert (= temp143189_28 (select ARGNAME_input_2_NAMEEND_DIMSIZE temp143189_27)))
(assert (= temp143189_29 #x0000000000000005))
(assert (= temp143189_30 (select ARGNAME_input_2_NAMEEND_DIMSIZE temp143189_29)))
(assert (= temp143189_31 #x0000000000000004))
(assert (= temp143189_32 (select ARGNAME_input_2_NAMEEND_DIMSIZE temp143189_31)))
(assert (= var77832 temp143189_32))
(assert (= temp143189_33 #x0000000000000004))
(assert (= temp143189_34 (select ARGNAME_input_1_NAMEEND_DIMSIZE temp143189_33)))
(assert (= var77833 temp143189_34))
(assert (= var77834 (ite (= var77832 var77833) #x0000000000000001 #x0000000000000000)))
(assert (= temp143189_35 #x0000000000000001))
(assert (= var77834 temp143189_35))
(assert (= temp143189_36 #x0000000000000001))
(assert (= var275510 temp143189_36))
(assert (= temp143189_37 #x0000000000000001))
(assert (= var275528
   (ite (bvslt var275510 temp143189_37) #x0000000000000001 #x0000000000000000)))
(assert (= temp143189_38 #x0000000000000000))
(assert (= var275528 temp143189_38))
(assert (= temp143189_40 #x0000000000000000))
(assert (= temp143189_39 temp143189_40))
(assert (= temp143189_42 #x0000000000000000))
(assert (= temp143189_41 temp143189_42))
(assert (= temp143189_43 #x0000000000000001))
(assert (= var406582 temp143189_43))
(assert (= temp143189_44 #x0000000000000001))
(assert (= var406600
   (ite (bvslt var406582 temp143189_44) #x0000000000000001 #x0000000000000000)))
(assert (= temp143189_45 #x0000000000000000))
(assert (= var406600 temp143189_45))
(assert (= temp143189_46 #x0000000000000001))
(assert (= var537654 temp143189_46))
(assert (= temp143189_47 #x0000000000000001))
(assert (= var537672
   (ite (bvslt var537654 temp143189_47) #x0000000000000001 #x0000000000000000)))
(assert (= temp143189_48 #x0000000000000000))
(assert (= var537672 temp143189_48))
(assert (= temp143189_50 #x00000000000000ff))
(assert (= temp143189_49 temp143189_50))
(assert (= temp143189_52 #x00000000000000ff))
(assert (= temp143189_51 temp143189_52))
(assert (= temp143189_54 #x00000000000000ff))
(assert (= temp143189_53 temp143189_54))
(assert (= temp143189_55 #x0000000000000000))
(assert (= var795723 temp143189_55))
(assert (= var795702 var795723))
(assert (= var664608 var795702))
(assert (= temp143189_56 #x0000000000000000))
(assert (= var664608 temp143189_56))
(assert (= temp143189_57 #x0000000000000000))
(assert (= var861259 temp143189_57))
(assert (= var861238 var861259))
(assert (= var664611 var861238))
(assert (= temp143189_58 #x0000000000000000))
(assert (= var664611 temp143189_58))
(assert (= temp143189_59 #x0000000000008000))
(assert (= var1057842 temp143189_59))
(assert (= temp143189_60 #x0000000000040000))
(assert (= var1123378 temp143189_60))
(assert (= temp143189_61 #x0000000000200000))
(assert (= var1188914 temp143189_61))
(model-add temp143189_1 () (_ BitVec 64) #x0000000000000005)
(model-add temp143189_2 () (_ BitVec 64) #x0000000000000001)
(model-add var77740 () (_ BitVec 64) #x0000000000000001)
(model-del k!0)
(model-add ARGNAME_input_1_NAMEEND_DIM
           ()
           (_ BitVec 64)
           (ite k!0 #x0000000000000005 (bvnot #x0000000000000005)))

